35
35
35
37
34
35
33
35
34
33
36
35
29
31
34
35
34
33
36
35
41
43
41
42
40
40
41
38
44
44
42
42
43
43
45
41
41
41
44
44
44
45
42
44
47
45
44
44
44
43
47
45
44
46
45
45
46
42
42
46
105
114
99
108
98
113
111
104
100
108
102
98
106
93
99
108
99
99
100
102
125
126
125
139
132
123
132
129
126
126
120
136
136
136
127
126
135
124
130
136
